<number of tasks>
50

<cycle time>
1000

<order strength>
0.896


<task times>
1 546
2 461
3 597
4 594
5 696
6 615
7 742
8 450
9 267
10 630
11 413
12 486
13 349
14 583
15 763
16 397
17 645
18 579
19 276
20 610
21 417
22 468
23 544
24 464
25 625
26 620
27 524
28 600
29 528
30 572
31 514
32 532
33 401
34 383
35 563
36 524
37 385
38 553
39 324
40 658
41 396
42 180
43 542
44 440
45 624
46 610
47 515
48 320
49 779
50 514

<precedence relations>
1,3
1,4
1,5
2,3
2,4
2,5
3,6
3,7
3,8
3,9
4,6
4,7
4,8
4,9
5,6
5,7
5,8
5,9
6,10
6,11
6,12
7,10
7,11
7,12
8,10
8,11
8,12
9,10
9,11
9,12
10,13
10,14
11,13
11,14
12,13
12,14
13,15
13,16
14,15
14,16
15,17
15,18
15,19
16,17
16,18
16,19
17,20
17,21
17,22
18,20
18,21
18,22
19,20
19,21
19,22
20,23
20,24
20,25
20,26
21,23
21,24
21,25
21,26
22,23
22,24
22,25
22,26
23,27
23,28
23,29
24,27
24,28
24,29
25,27
25,28
25,29
26,27
26,28
27,30
27,31
28,40
29,30
29,32
29,33
30,34
31,34
32,34
33,43
34,35
34,36
35,37
35,38
35,39
36,50
37,40
37,41
37,42
38,40
38,41
38,42
39,44
40,44
41,43
41,45
41,48
44,45
44,46
44,47
44,48
45,49
46,50

<end>
